3341
3355
3343
3339
3378
3396
3377
3372
3406
3369
3397
3401
3341
3399
3391
3474
3375
3413
3341
3285
3402
3439
3422
3444
3400
3420
3457
3316
3356
3391
3370
3378
3365
3350
3378
3377
3393
3382
3430
3324
3411
3400
3375
3401
3432
3282
3389
3430
3410
3393
3403
3364
3382
3388
3365
3385
3399
3403
3373
3447
3411
3437
3369
3407
3366
3395
3410
3387
3386
3424
3423
3356
3371
3364
3387
3392
3422
3371
3389
3424
3445
3368
3411
3397
3390
3405
3355
3350
3395
3440
3363
3385
3421
3390
3405
3359
3432
3395
3466
3382
